benchmark_num_str/p1_8_10-2.dzn
Alphabet = {A,C,G,T};
ns = 8;
nc = 10;
sl = 10;
neighbours = [| I(A),I(C),I(A),I(A),I(C),I(A),I(A),I(C),I(C),I(A) | I(A),I(A),I(A),I(A),I(A),I(A),I(A),I(A),I(A),I(A) | I(G),I(A),I(C),I(C),I(A),I(A),I(A),I(C),I(C),I(A) | I(C),I(A),I(A),I(C),I(C),I(C),I(A),I(A),I(A),I(A) | I(A),I(A),I(A),I(C),I(A),I(A),I(C),I(A),I(A),I(A) | I(A),I(A),I(A),I(A),I(C),I(A),I(C),I(A),I(C),I(A) | I(A),I(A),I(A),I(A),I(A),I(G),I(C),I(C),I(A),I(A) | I(A),I(C),I(A),I(A),I(C),I(A),I(A),I(A),I(A),I(G) |];
