benchmark_num_str/p1_8_10-2.txt
{
	"num_strings": 8,
	"alphabet": "ACGT",
	"strings": [
		"ACAACAACCA",
		"AAAAAAAAAA",
		"GACCAAACCA",
		"CAACCCAAAA",
		"AAACAACAAA",
		"AAAACACACA",
		"AAAAAGCCAA",
		"ACAACAAAAG"
	],
	"str_length":[10,10,10,10,10,10,10,10]
}